(set-info :smt-lib-version 2.6)
(set-logic QF_UF)
(set-info :source |
CADE ATP System competition. See http://www.cs.miami.edu/~tptp/CASC
 for more information. 

This benchmark was obtained by trying to find a finite model of a first-order 
formula (Albert Oliveras).
|)
(set-info :category "crafted")
(set-info :status unsat)
(declare-sort U 0)
(declare-fun p10 (U U) Bool)
(declare-fun p9 (U) Bool)
(declare-fun f16 (U U U) U)
(declare-fun p3 (U) Bool)
(declare-fun f2 (U U) U)
(declare-fun p4 (U) Bool)
(declare-fun f7 (U) U)
(declare-fun p1 (U U) Bool)
(declare-fun f12 (U) U)
(declare-fun c18 () U)
(declare-fun p14 (U U U) Bool)
(declare-fun f17 (U U U) U)
(declare-fun f13 (U U U) U)
(declare-fun f6 (U) U)
(declare-fun f5 (U) U)
(declare-fun f11 (U) U)
(declare-fun p15 (U U) Bool)
(declare-fun c8 () U)
(declare-fun c_0 () U)
(declare-fun c_1 () U)
(assert (let ((?v_0 (not (p10 c_0 c_0))) (?v_1 (not (p9 c_0))) (?v_20 (f16 c_0 c_0 c_0)) (?v_5 (= c_0 c_0)) (?v_2 (not (p3 c_0))) (?v_24 (f16 c_1 c_0 c_0)) (?v_7 (= c_1 c_0)) (?v_3 (not (p10 c_0 c_1))) (?v_4 (not (p9 c_1))) (?v_22 (f16 c_0 c_1 c_0)) (?v_10 (= c_0 c_1)) (?v_26 (f16 c_1 c_1 c_0)) (?v_11 (= c_1 c_1)) (?v_6 (not (p10 c_1 c_0))) (?v_21 (f16 c_0 c_0 c_1)) (?v_8 (not (p3 c_1))) (?v_25 (f16 c_1 c_0 c_1)) (?v_9 (not (p10 c_1 c_1))) (?v_23 (f16 c_0 c_1 c_1)) (?v_27 (f16 c_1 c_1 c_1)) (?v_12 (f2 c_0 c_0)) (?v_14 (f2 c_1 c_0)) (?v_13 (f2 c_0 c_1)) (?v_15 (f2 c_1 c_1)) (?v_16 (f7 c_0)) (?v_17 (not (p4 c_0))) (?v_18 (f7 c_1)) (?v_19 (not (p4 c_1)))) (let ((?v_76 (or ?v_2 ?v_5 ?v_2 (p1 c_0 ?v_12))) (?v_77 (or ?v_8 ?v_11 ?v_8 (p1 c_1 ?v_15))) (?v_28 (f12 c_0)) (?v_29 (f12 c_1)) (?v_68 (p10 ?v_20 c_0)) (?v_69 (p10 ?v_21 c_0)) (?v_70 (p10 ?v_26 c_1)) (?v_71 (p10 ?v_27 c_1)) (?v_30 (p14 c_0 c_0 c_0))) (let ((?v_43 (not ?v_30)) (?v_42 (f17 c_0 c_0 c_0)) (?v_31 (p14 c_0 c_0 c_1))) (let ((?v_45 (not ?v_31)) (?v_44 (f17 c_0 c_0 c_1)) (?v_32 (p14 c_0 c_1 c_0))) (let ((?v_51 (not ?v_32)) (?v_50 (f17 c_0 c_1 c_0)) (?v_33 (p14 c_0 c_1 c_1))) (let ((?v_53 (not ?v_33)) (?v_52 (f17 c_0 c_1 c_1)) (?v_34 (p14 c_1 c_0 c_0))) (let ((?v_47 (not ?v_34)) (?v_46 (f17 c_1 c_0 c_0)) (?v_35 (p14 c_1 c_0 c_1))) (let ((?v_49 (not ?v_35)) (?v_48 (f17 c_1 c_0 c_1)) (?v_36 (p14 c_1 c_1 c_0))) (let ((?v_55 (not ?v_36)) (?v_54 (f17 c_1 c_1 c_0)) (?v_37 (p14 c_1 c_1 c_1))) (let ((?v_57 (not ?v_37)) (?v_56 (f17 c_1 c_1 c_1)) (?v_98 (f13 c_0 c_0 c_0))) (let ((?v_80 (p10 c_0 ?v_98)) (?v_88 (f13 c_0 c_0 c_1))) (let ((?v_81 (p10 c_0 ?v_88)) (?v_82 (f13 c_0 c_1 c_0)) (?v_83 (f13 c_0 c_1 c_1))) (let ((?v_90 (p10 c_1 ?v_83)) (?v_84 (f13 c_1 c_0 c_0))) (let ((?v_91 (p10 c_0 ?v_84)) (?v_85 (f13 c_1 c_0 c_1)) (?v_93 (f13 c_1 c_1 c_0))) (let ((?v_86 (p10 c_1 ?v_93)) (?v_99 (f13 c_1 c_1 c_1))) (let ((?v_87 (p10 c_1 ?v_99)) (?v_38 (f6 c_0)) (?v_39 (f6 c_1)) (?v_40 (f5 c_0)) (?v_41 (f5 c_1)) (?v_72 (p1 c_0 ?v_42)) (?v_95 (p1 c_0 ?v_44)) (?v_74 (p1 c_0 ?v_46)) (?v_73 (p1 c_1 ?v_52)) (?v_96 (p1 c_1 ?v_54)) (?v_75 (p1 c_1 ?v_56)) (?v_58 (f11 c_0)) (?v_59 (f11 c_1)) (?v_61 (p15 c_0 c_0)) (?v_60 (not (p1 c_0 c_0))) (?v_62 (not (p1 c_1 c_0))) (?v_63 (p15 c_0 c_1)) (?v_65 (p15 c_1 c_0)) (?v_64 (not (p1 c_0 c_1))) (?v_66 (not (p1 c_1 c_1))) (?v_67 (p15 c_1 c_1)) (?v_94 (p1 c_0 ?v_50)) (?v_97 (p1 c_1 ?v_48)) (?v_78 (not (p10 c_0 c18))) (?v_79 (not (p10 c_1 c18))) (?v_89 (p10 c_0 ?v_82)) (?v_92 (p10 c_1 ?v_85))) (and (distinct c_0 c_1) (or ?v_0 ?v_1 (not (= c_0 ?v_20)) ?v_5 ?v_2 ?v_0 ?v_1) (or ?v_0 ?v_1 (not (= c_0 ?v_24)) ?v_7 ?v_2 ?v_3 ?v_4) (or ?v_3 ?v_4 (not (= c_0 ?v_22)) ?v_10 ?v_2 ?v_0 ?v_1) (or ?v_3 ?v_4 (not (= c_0 ?v_26)) ?v_11 ?v_2 ?v_3 ?v_4) (or ?v_6 ?v_1 (not (= c_1 ?v_21)) ?v_5 ?v_8 ?v_6 ?v_1) (or ?v_6 ?v_1 (not (= c_1 ?v_25)) ?v_7 ?v_8 ?v_9 ?v_4) (or ?v_9 ?v_4 (not (= c_1 ?v_23)) ?v_10 ?v_8 ?v_6 ?v_1) (or ?v_9 ?v_4 (not (= c_1 ?v_27)) ?v_11 ?v_8 ?v_9 ?v_4) (or ?v_2 ?v_2 (p4 ?v_12) ?v_5) (or ?v_2 ?v_8 (p4 ?v_14) ?v_7) (or ?v_8 ?v_2 (p4 ?v_13) ?v_10) (or ?v_8 ?v_8 (p4 ?v_15) ?v_11) (or (p3 ?v_16) ?v_17) (or (p3 ?v_18) ?v_19) ?v_76 (or ?v_2 ?v_10 ?v_8 (p1 c_0 ?v_13)) (or ?v_8 ?v_7 ?v_2 (p1 c_1 ?v_14)) ?v_77 (or (p3 ?v_28) ?v_1) (or (p3 ?v_29) ?v_4) (or (not (p1 ?v_16 c_0)) ?v_17) (or (not (p1 ?v_18 c_1)) ?v_19) (or ?v_68 ?v_5 ?v_1 ?v_1 ?v_0 ?v_0 ?v_2) (or ?v_69 ?v_5 ?v_1 ?v_1 ?v_6 ?v_6 ?v_8) (or (p10 ?v_22 c_0) ?v_10 ?v_1 ?v_4 ?v_3 ?v_0 ?v_2) (or (p10 ?v_23 c_0) ?v_10 ?v_1 ?v_4 ?v_9 ?v_6 ?v_8) (or (p10 ?v_24 c_1) ?v_7 ?v_4 ?v_1 ?v_0 ?v_3 ?v_2) (or (p10 ?v_25 c_1) ?v_7 ?v_4 ?v_1 ?v_6 ?v_9 ?v_8) (or ?v_70 ?v_11 ?v_4 ?v_4 ?v_3 ?v_3 ?v_2) (or ?v_71 ?v_11 ?v_4 ?v_4 ?v_9 ?v_9 ?v_8) (p9 c18) (or (not (p10 ?v_28 c_0)) ?v_1) (or (not (p10 ?v_29 c_1)) ?v_4) (or ?v_0 ?v_1 ?v_0 ?v_5 ?v_1 ?v_2 (p3 ?v_20)) (or ?v_0 ?v_4 ?v_3 ?v_10 ?v_1 ?v_2 (p3 ?v_22)) (or ?v_3 ?v_1 ?v_0 ?v_7 ?v_4 ?v_2 (p3 ?v_24)) (or ?v_3 ?v_4 ?v_3 ?v_11 ?v_4 ?v_2 (p3 ?v_26)) (or ?v_6 ?v_1 ?v_6 ?v_5 ?v_1 ?v_8 (p3 ?v_21)) (or ?v_6 ?v_4 ?v_9 ?v_10 ?v_1 ?v_8 (p3 ?v_23)) (or ?v_9 ?v_1 ?v_6 ?v_7 ?v_4 ?v_8 (p3 ?v_25)) (or ?v_9 ?v_4 ?v_9 ?v_11 ?v_4 ?v_8 (p3 ?v_27)) (or ?v_5 ?v_43 ?v_5 ?v_2 ?v_5 ?v_2 (p4 ?v_42) ?v_2) (or ?v_5 ?v_45 ?v_10 ?v_2 ?v_10 ?v_8 (p4 ?v_44) ?v_2) (or ?v_10 ?v_51 ?v_5 ?v_8 ?v_7 ?v_2 (p4 ?v_50) ?v_2) (or ?v_10 ?v_53 ?v_10 ?v_8 ?v_11 ?v_8 (p4 ?v_52) ?v_2) (or ?v_7 ?v_47 ?v_7 ?v_2 ?v_5 ?v_2 (p4 ?v_46) ?v_8) (or ?v_7 ?v_49 ?v_11 ?v_2 ?v_10 ?v_8 (p4 ?v_48) ?v_8) (or ?v_11 ?v_55 ?v_7 ?v_8 ?v_7 ?v_2 (p4 ?v_54) ?v_8) (or ?v_11 ?v_57 ?v_11 ?v_8 ?v_11 ?v_8 (p4 ?v_56) ?v_8) (or ?v_5 ?v_80 ?v_2 ?v_30 ?v_5 ?v_2 ?v_2 ?v_5) (or ?v_5 ?v_81 ?v_2 ?v_31 ?v_10 ?v_2 ?v_8 ?v_10) (or ?v_10 (p10 c_1 ?v_82) ?v_8 ?v_32 ?v_7 ?v_2 ?v_2 ?v_5) (or ?v_10 ?v_90 ?v_8 ?v_33 ?v_11 ?v_2 ?v_8 ?v_10) (or ?v_7 ?v_91 ?v_2 ?v_34 ?v_5 ?v_8 ?v_2 ?v_7) (or ?v_7 (p10 c_0 ?v_85) ?v_2 ?v_35 ?v_10 ?v_8 ?v_8 ?v_11) (or ?v_11 ?v_86 ?v_8 ?v_36 ?v_7 ?v_8 ?v_2 ?v_7) (or ?v_11 ?v_87 ?v_8 ?v_37 ?v_11 ?v_8 ?v_8 ?v_11) (or ?v_17 (p1 ?v_38 c_0)) (or ?v_19 (p1 ?v_39 c_1)) (or (p1 ?v_40 c_0) ?v_17) (or (p1 ?v_41 c_1) ?v_19) (or (p3 ?v_38) ?v_17) (or (p3 ?v_39) ?v_19) (or (p3 ?v_40) ?v_17) (or (p3 ?v_41) ?v_19) (or ?v_2 ?v_72 ?v_2 ?v_5 ?v_5 ?v_5 ?v_43 ?v_2) (or ?v_2 ?v_95 ?v_2 ?v_5 ?v_10 ?v_10 ?v_45 ?v_8) (or ?v_2 ?v_74 ?v_8 ?v_7 ?v_5 ?v_7 ?v_47 ?v_2) (or ?v_2 (p1 c_0 ?v_48) ?v_8 ?v_7 ?v_10 ?v_11 ?v_49 ?v_8) (or ?v_8 (p1 c_1 ?v_50) ?v_2 ?v_10 ?v_7 ?v_5 ?v_51 ?v_2) (or ?v_8 ?v_73 ?v_2 ?v_10 ?v_11 ?v_10 ?v_53 ?v_8) (or ?v_8 ?v_96 ?v_8 ?v_11 ?v_7 ?v_7 ?v_55 ?v_2) (or ?v_8 ?v_75 ?v_8 ?v_11 ?v_11 ?v_11 ?v_57 ?v_8) (or (p3 ?v_58) ?v_1) (or (p3 ?v_59) ?v_4) (or ?v_1 (p10 ?v_58 c_0)) (or ?v_4 (p10 ?v_59 c_1)) (or ?v_61 ?v_2 ?v_0 ?v_60 ?v_60 ?v_1 ?v_5 ?v_2 ?v_0 ?v_17) (or ?v_61 ?v_2 ?v_0 ?v_60 ?v_62 ?v_1 ?v_10 ?v_8 ?v_6 ?v_17) (or ?v_61 ?v_8 ?v_6 ?v_62 ?v_60 ?v_1 ?v_7 ?v_2 ?v_0 ?v_17) (or ?v_61 ?v_8 ?v_6 ?v_62 ?v_62 ?v_1 ?v_11 ?v_8 ?v_6 ?v_17) (or ?v_63 ?v_2 ?v_3 ?v_60 ?v_60 ?v_4 ?v_5 ?v_2 ?v_3 ?v_17) (or ?v_63 ?v_2 ?v_3 ?v_60 ?v_62 ?v_4 ?v_10 ?v_8 ?v_9 ?v_17) (or ?v_63 ?v_8 ?v_9 ?v_62 ?v_60 ?v_4 ?v_7 ?v_2 ?v_3 ?v_17) (or ?v_63 ?v_8 ?v_9 ?v_62 ?v_62 ?v_4 ?v_11 ?v_8 ?v_9 ?v_17) (or ?v_65 ?v_2 ?v_0 ?v_64 ?v_64 ?v_1 ?v_5 ?v_2 ?v_0 ?v_19) (or ?v_65 ?v_2 ?v_0 ?v_64 ?v_66 ?v_1 ?v_10 ?v_8 ?v_6 ?v_19) (or ?v_65 ?v_8 ?v_6 ?v_66 ?v_64 ?v_1 ?v_7 ?v_2 ?v_0 ?v_19) (or ?v_65 ?v_8 ?v_6 ?v_66 ?v_66 ?v_1 ?v_11 ?v_8 ?v_6 ?v_19) (or ?v_67 ?v_2 ?v_3 ?v_64 ?v_64 ?v_4 ?v_5 ?v_2 ?v_3 ?v_19) (or ?v_67 ?v_2 ?v_3 ?v_64 ?v_66 ?v_4 ?v_10 ?v_8 ?v_9 ?v_19) (or ?v_67 ?v_8 ?v_9 ?v_66 ?v_64 ?v_4 ?v_7 ?v_2 ?v_3 ?v_19) (or ?v_67 ?v_8 ?v_9 ?v_66 ?v_66 ?v_4 ?v_11 ?v_8 ?v_9 ?v_19) (or ?v_68 ?v_2 ?v_0 ?v_1 ?v_1 ?v_5 ?v_0) (or ?v_69 ?v_8 ?v_6 ?v_1 ?v_1 ?v_5 ?v_6) (or (p10 ?v_22 c_1) ?v_2 ?v_3 ?v_4 ?v_1 ?v_10 ?v_0) (or (p10 ?v_23 c_1) ?v_8 ?v_9 ?v_4 ?v_1 ?v_10 ?v_6) (or (p10 ?v_24 c_0) ?v_2 ?v_0 ?v_1 ?v_4 ?v_7 ?v_3) (or (p10 ?v_25 c_0) ?v_8 ?v_6 ?v_1 ?v_4 ?v_7 ?v_9) (or ?v_70 ?v_2 ?v_3 ?v_4 ?v_4 ?v_11 ?v_3) (or ?v_71 ?v_8 ?v_9 ?v_4 ?v_4 ?v_11 ?v_9) (or ?v_60 ?v_5 ?v_2 ?v_30 ?v_2 ?v_60 ?v_60 ?v_2 ?v_5 ?v_17 ?v_5) (or ?v_60 ?v_5 ?v_8 ?v_32 ?v_2 ?v_60 ?v_62 ?v_2 ?v_10 ?v_17 ?v_7) (or ?v_60 ?v_10 ?v_2 ?v_31 ?v_2 ?v_62 ?v_60 ?v_8 ?v_5 ?v_17 ?v_10) (or ?v_60 ?v_10 ?v_8 ?v_33 ?v_2 ?v_62 ?v_62 ?v_8 ?v_10 ?v_17 ?v_11) (or ?v_64 ?v_5 ?v_2 ?v_30 ?v_2 ?v_64 ?v_64 ?v_2 ?v_5 ?v_19 ?v_5) (or ?v_64 ?v_5 ?v_8 ?v_32 ?v_2 ?v_64 ?v_66 ?v_2 ?v_10 ?v_19 ?v_7) (or ?v_64 ?v_10 ?v_2 ?v_31 ?v_2 ?v_66 ?v_64 ?v_8 ?v_5 ?v_19 ?v_10) (or ?v_64 ?v_10 ?v_8 ?v_33 ?v_2 ?v_66 ?v_66 ?v_8 ?v_10 ?v_19 ?v_11) (or ?v_62 ?v_7 ?v_2 ?v_34 ?v_8 ?v_60 ?v_60 ?v_2 ?v_7 ?v_17 ?v_5) (or ?v_62 ?v_7 ?v_8 ?v_36 ?v_8 ?v_60 ?v_62 ?v_2 ?v_11 ?v_17 ?v_7) (or ?v_62 ?v_11 ?v_2 ?v_35 ?v_8 ?v_62 ?v_60 ?v_8 ?v_7 ?v_17 ?v_10) (or ?v_62 ?v_11 ?v_8 ?v_37 ?v_8 ?v_62 ?v_62 ?v_8 ?v_11 ?v_17 ?v_11) (or ?v_66 ?v_7 ?v_2 ?v_34 ?v_8 ?v_64 ?v_64 ?v_2 ?v_7 ?v_19 ?v_5) (or ?v_66 ?v_7 ?v_8 ?v_36 ?v_8 ?v_64 ?v_66 ?v_2 ?v_11 ?v_19 ?v_7) (or ?v_66 ?v_11 ?v_2 ?v_35 ?v_8 ?v_66 ?v_64 ?v_8 ?v_7 ?v_19 ?v_10) (or ?v_66 ?v_11 ?v_8 ?v_37 ?v_8 ?v_66 ?v_66 ?v_8 ?v_11 ?v_19 ?v_11) (or ?v_2 ?v_17 ?v_2 ?v_60 ?v_5 ?v_60 ?v_5 ?v_60 ?v_17 ?v_60) (or ?v_2 ?v_17 ?v_2 ?v_60 ?v_10 ?v_60 ?v_5 ?v_64 ?v_19 ?v_64) (or ?v_2 ?v_17 ?v_8 ?v_62 ?v_5 ?v_60 ?v_7 ?v_62 ?v_17 ?v_60) (or ?v_2 ?v_17 ?v_8 ?v_62 ?v_10 ?v_60 ?v_7 ?v_66 ?v_19 ?v_64) (or ?v_2 ?v_19 ?v_2 ?v_64 ?v_7 ?v_64 ?v_5 ?v_60 ?v_17 ?v_60) (or ?v_2 ?v_19 ?v_2 ?v_64 ?v_11 ?v_64 ?v_5 ?v_64 ?v_19 ?v_64) (or ?v_2 ?v_19 ?v_8 ?v_66 ?v_7 ?v_64 ?v_7 ?v_62 ?v_17 ?v_60) (or ?v_2 ?v_19 ?v_8 ?v_66 ?v_11 ?v_64 ?v_7 ?v_66 ?v_19 ?v_64) (or ?v_8 ?v_17 ?v_2 ?v_60 ?v_5 ?v_62 ?v_10 ?v_60 ?v_17 ?v_62) (or ?v_8 ?v_17 ?v_2 ?v_60 ?v_10 ?v_62 ?v_10 ?v_64 ?v_19 ?v_66) (or ?v_8 ?v_17 ?v_8 ?v_62 ?v_5 ?v_62 ?v_11 ?v_62 ?v_17 ?v_62) (or ?v_8 ?v_17 ?v_8 ?v_62 ?v_10 ?v_62 ?v_11 ?v_66 ?v_19 ?v_66) (or ?v_8 ?v_19 ?v_2 ?v_64 ?v_7 ?v_66 ?v_10 ?v_60 ?v_17 ?v_62) (or ?v_8 ?v_19 ?v_2 ?v_64 ?v_11 ?v_66 ?v_10 ?v_64 ?v_19 ?v_66) (or ?v_8 ?v_19 ?v_8 ?v_66 ?v_7 ?v_66 ?v_11 ?v_62 ?v_17 ?v_62) (or ?v_8 ?v_19 ?v_8 ?v_66 ?v_11 ?v_66 ?v_11 ?v_66 ?v_19 ?v_66) (or ?v_43 ?v_5 ?v_72 ?v_2 ?v_5 ?v_2 ?v_2 ?v_5) (or ?v_45 ?v_5 (p1 c_1 ?v_44) ?v_2 ?v_10 ?v_8 ?v_2 ?v_10) (or ?v_51 ?v_10 ?v_94 ?v_8 ?v_7 ?v_2 ?v_2 ?v_5) (or ?v_53 ?v_10 ?v_73 ?v_8 ?v_11 ?v_8 ?v_2 ?v_10) (or ?v_47 ?v_7 ?v_74 ?v_2 ?v_5 ?v_2 ?v_8 ?v_7) (or ?v_49 ?v_7 ?v_97 ?v_2 ?v_10 ?v_8 ?v_8 ?v_11) (or ?v_55 ?v_11 (p1 c_0 ?v_54) ?v_8 ?v_7 ?v_2 ?v_8 ?v_7) (or ?v_57 ?v_11 ?v_75 ?v_8 ?v_11 ?v_8 ?v_8 ?v_11) (p4 c8) ?v_76 (or ?v_2 ?v_10 ?v_8 (p1 c_1 ?v_13)) (or ?v_8 ?v_7 ?v_2 (p1 c_0 ?v_14)) ?v_77 (or ?v_5 ?v_5 ?v_78 ?v_2 ?v_2 ?v_5 ?v_78 ?v_30 ?v_2 ?v_78) (or ?v_5 ?v_7 ?v_78 ?v_2 ?v_8 ?v_7 ?v_78 ?v_34 ?v_2 ?v_79) (or ?v_10 ?v_10 ?v_78 ?v_2 ?v_2 ?v_5 ?v_79 ?v_31 ?v_8 ?v_78) (or ?v_10 ?v_11 ?v_78 ?v_2 ?v_8 ?v_7 ?v_79 ?v_35 ?v_8 ?v_79) (or ?v_7 ?v_5 ?v_79 ?v_8 ?v_2 ?v_10 ?v_78 ?v_32 ?v_2 ?v_78) (or ?v_7 ?v_7 ?v_79 ?v_8 ?v_8 ?v_11 ?v_78 ?v_36 ?v_2 ?v_79) (or ?v_11 ?v_10 ?v_79 ?v_8 ?v_2 ?v_10 ?v_79 ?v_33 ?v_8 ?v_78) (or ?v_11 ?v_11 ?v_79 ?v_8 ?v_8 ?v_11 ?v_79 ?v_37 ?v_8 ?v_79) (or ?v_5 ?v_2 ?v_80 ?v_5 ?v_30 ?v_5 ?v_2 ?v_2) (or ?v_5 ?v_8 ?v_81 ?v_10 ?v_31 ?v_10 ?v_2 ?v_2) (or ?v_10 ?v_2 ?v_89 ?v_5 ?v_32 ?v_7 ?v_8 ?v_2) (or ?v_10 ?v_8 (p10 c_0 ?v_83) ?v_10 ?v_33 ?v_11 ?v_8 ?v_2) (or ?v_7 ?v_2 (p10 c_1 ?v_84) ?v_7 ?v_34 ?v_5 ?v_2 ?v_8) (or ?v_7 ?v_8 ?v_92 ?v_11 ?v_35 ?v_10 ?v_2 ?v_8) (or ?v_11 ?v_2 ?v_86 ?v_7 ?v_36 ?v_7 ?v_8 ?v_8) (or ?v_11 ?v_8 ?v_87 ?v_11 ?v_37 ?v_11 ?v_8 ?v_8) (or ?v_30 ?v_5 ?v_5 ?v_2 ?v_2 ?v_80 ?v_2 ?v_5) (or ?v_31 ?v_5 ?v_10 ?v_2 ?v_2 (p10 c_1 ?v_88) ?v_8 ?v_10) (or ?v_32 ?v_10 ?v_7 ?v_2 ?v_8 ?v_89 ?v_2 ?v_5) (or ?v_33 ?v_10 ?v_11 ?v_2 ?v_8 ?v_90 ?v_8 ?v_10) (or ?v_34 ?v_7 ?v_5 ?v_8 ?v_2 ?v_91 ?v_2 ?v_7) (or ?v_35 ?v_7 ?v_10 ?v_8 ?v_2 ?v_92 ?v_8 ?v_11) (or ?v_36 ?v_11 ?v_7 ?v_8 ?v_8 (p10 c_0 ?v_93) ?v_2 ?v_7) (or ?v_37 ?v_11 ?v_11 ?v_8 ?v_8 ?v_87 ?v_8 ?v_11) (or ?v_5 ?v_1 ?v_0 ?v_0 ?v_2 ?v_0 ?v_2 ?v_0 ?v_30 ?v_1 ?v_0 ?v_0 ?v_5 ?v_5 ?v_5 ?v_2) (or ?v_5 ?v_1 ?v_0 ?v_0 ?v_2 ?v_6 ?v_8 ?v_6 ?v_32 ?v_1 ?v_0 ?v_0 ?v_5 ?v_7 ?v_10 ?v_2) (or ?v_5 ?v_1 ?v_0 ?v_6 ?v_8 ?v_0 ?v_2 ?v_0 ?v_31 ?v_1 ?v_6 ?v_0 ?v_10 ?v_10 ?v_5 ?v_2) (or ?v_5 ?v_1 ?v_0 ?v_6 ?v_8 ?v_6 ?v_8 ?v_6 ?v_33 ?v_1 ?v_6 ?v_0 ?v_10 ?v_11 ?v_10 ?v_2) (or ?v_5 ?v_1 ?v_6 ?v_0 ?v_2 ?v_0 ?v_2 ?v_0 ?v_34 ?v_1 ?v_0 ?v_6 ?v_7 ?v_5 ?v_7 ?v_8) (or ?v_5 ?v_1 ?v_6 ?v_0 ?v_2 ?v_6 ?v_8 ?v_6 ?v_36 ?v_1 ?v_0 ?v_6 ?v_7 ?v_7 ?v_11 ?v_8) (or ?v_5 ?v_1 ?v_6 ?v_6 ?v_8 ?v_0 ?v_2 ?v_0 ?v_35 ?v_1 ?v_6 ?v_6 ?v_11 ?v_10 ?v_7 ?v_8) (or ?v_5 ?v_1 ?v_6 ?v_6 ?v_8 ?v_6 ?v_8 ?v_6 ?v_37 ?v_1 ?v_6 ?v_6 ?v_11 ?v_11 ?v_11 ?v_8) (or ?v_10 ?v_4 ?v_3 ?v_0 ?v_2 ?v_3 ?v_2 ?v_0 ?v_30 ?v_1 ?v_3 ?v_0 ?v_5 ?v_5 ?v_5 ?v_2) (or ?v_10 ?v_4 ?v_3 ?v_0 ?v_2 ?v_9 ?v_8 ?v_6 ?v_32 ?v_1 ?v_3 ?v_0 ?v_5 ?v_7 ?v_10 ?v_2) (or ?v_10 ?v_4 ?v_3 ?v_6 ?v_8 ?v_3 ?v_2 ?v_0 ?v_31 ?v_1 ?v_9 ?v_0 ?v_10 ?v_10 ?v_5 ?v_2) (or ?v_10 ?v_4 ?v_3 ?v_6 ?v_8 ?v_9 ?v_8 ?v_6 ?v_33 ?v_1 ?v_9 ?v_0 ?v_10 ?v_11 ?v_10 ?v_2) (or ?v_10 ?v_4 ?v_9 ?v_0 ?v_2 ?v_3 ?v_2 ?v_0 ?v_34 ?v_1 ?v_3 ?v_6 ?v_7 ?v_5 ?v_7 ?v_8) (or ?v_10 ?v_4 ?v_9 ?v_0 ?v_2 ?v_9 ?v_8 ?v_6 ?v_36 ?v_1 ?v_3 ?v_6 ?v_7 ?v_7 ?v_11 ?v_8) (or ?v_10 ?v_4 ?v_9 ?v_6 ?v_8 ?v_3 ?v_2 ?v_0 ?v_35 ?v_1 ?v_9 ?v_6 ?v_11 ?v_10 ?v_7 ?v_8) (or ?v_10 ?v_4 ?v_9 ?v_6 ?v_8 ?v_9 ?v_8 ?v_6 ?v_37 ?v_1 ?v_9 ?v_6 ?v_11 ?v_11 ?v_11 ?v_8) (or ?v_7 ?v_1 ?v_0 ?v_3 ?v_2 ?v_0 ?v_2 ?v_3 ?v_30 ?v_4 ?v_0 ?v_3 ?v_5 ?v_5 ?v_5 ?v_2) (or ?v_7 ?v_1 ?v_0 ?v_3 ?v_2 ?v_6 ?v_8 ?v_9 ?v_32 ?v_4 ?v_0 ?v_3 ?v_5 ?v_7 ?v_10 ?v_2) (or ?v_7 ?v_1 ?v_0 ?v_9 ?v_8 ?v_0 ?v_2 ?v_3 ?v_31 ?v_4 ?v_6 ?v_3 ?v_10 ?v_10 ?v_5 ?v_2) (or ?v_7 ?v_1 ?v_0 ?v_9 ?v_8 ?v_6 ?v_8 ?v_9 ?v_33 ?v_4 ?v_6 ?v_3 ?v_10 ?v_11 ?v_10 ?v_2) (or ?v_7 ?v_1 ?v_6 ?v_3 ?v_2 ?v_0 ?v_2 ?v_3 ?v_34 ?v_4 ?v_0 ?v_9 ?v_7 ?v_5 ?v_7 ?v_8) (or ?v_7 ?v_1 ?v_6 ?v_3 ?v_2 ?v_6 ?v_8 ?v_9 ?v_36 ?v_4 ?v_0 ?v_9 ?v_7 ?v_7 ?v_11 ?v_8) (or ?v_7 ?v_1 ?v_6 ?v_9 ?v_8 ?v_0 ?v_2 ?v_3 ?v_35 ?v_4 ?v_6 ?v_9 ?v_11 ?v_10 ?v_7 ?v_8) (or ?v_7 ?v_1 ?v_6 ?v_9 ?v_8 ?v_6 ?v_8 ?v_9 ?v_37 ?v_4 ?v_6 ?v_9 ?v_11 ?v_11 ?v_11 ?v_8) (or ?v_11 ?v_4 ?v_3 ?v_3 ?v_2 ?v_3 ?v_2 ?v_3 ?v_30 ?v_4 ?v_3 ?v_3 ?v_5 ?v_5 ?v_5 ?v_2) (or ?v_11 ?v_4 ?v_3 ?v_3 ?v_2 ?v_9 ?v_8 ?v_9 ?v_32 ?v_4 ?v_3 ?v_3 ?v_5 ?v_7 ?v_10 ?v_2) (or ?v_11 ?v_4 ?v_3 ?v_9 ?v_8 ?v_3 ?v_2 ?v_3 ?v_31 ?v_4 ?v_9 ?v_3 ?v_10 ?v_10 ?v_5 ?v_2) (or ?v_11 ?v_4 ?v_3 ?v_9 ?v_8 ?v_9 ?v_8 ?v_9 ?v_33 ?v_4 ?v_9 ?v_3 ?v_10 ?v_11 ?v_10 ?v_2) (or ?v_11 ?v_4 ?v_9 ?v_3 ?v_2 ?v_3 ?v_2 ?v_3 ?v_34 ?v_4 ?v_3 ?v_9 ?v_7 ?v_5 ?v_7 ?v_8) (or ?v_11 ?v_4 ?v_9 ?v_3 ?v_2 ?v_9 ?v_8 ?v_9 ?v_36 ?v_4 ?v_3 ?v_9 ?v_7 ?v_7 ?v_11 ?v_8) (or ?v_11 ?v_4 ?v_9 ?v_9 ?v_8 ?v_3 ?v_2 ?v_3 ?v_35 ?v_4 ?v_9 ?v_9 ?v_11 ?v_10 ?v_7 ?v_8) (or ?v_11 ?v_4 ?v_9 ?v_9 ?v_8 ?v_9 ?v_8 ?v_9 ?v_37 ?v_4 ?v_9 ?v_9 ?v_11 ?v_11 ?v_11 ?v_8) (or ?v_5 ?v_2 ?v_43 ?v_5 ?v_2 ?v_5 ?v_2 ?v_72) (or ?v_5 ?v_2 ?v_51 ?v_7 ?v_2 ?v_10 ?v_8 ?v_94) (or ?v_10 ?v_2 ?v_45 ?v_10 ?v_8 ?v_5 ?v_2 ?v_95) (or ?v_10 ?v_2 ?v_53 ?v_11 ?v_8 ?v_10 ?v_8 (p1 c_0 ?v_52)) (or ?v_7 ?v_8 ?v_47 ?v_5 ?v_2 ?v_7 ?v_2 (p1 c_1 ?v_46)) (or ?v_7 ?v_8 ?v_55 ?v_7 ?v_2 ?v_11 ?v_8 ?v_96) (or ?v_11 ?v_8 ?v_49 ?v_10 ?v_8 ?v_7 ?v_2 ?v_97) (or ?v_11 ?v_8 ?v_57 ?v_11 ?v_8 ?v_11 ?v_8 ?v_75) (or ?v_30 ?v_2 ?v_5 ?v_5 ?v_2 (p9 ?v_98) ?v_2 ?v_5) (or ?v_31 ?v_8 ?v_10 ?v_10 ?v_2 (p9 ?v_88) ?v_2 ?v_5) (or ?v_32 ?v_2 ?v_7 ?v_5 ?v_8 (p9 ?v_82) ?v_2 ?v_10) (or ?v_33 ?v_8 ?v_11 ?v_10 ?v_8 (p9 ?v_83) ?v_2 ?v_10) (or ?v_34 ?v_2 ?v_5 ?v_7 ?v_2 (p9 ?v_84) ?v_8 ?v_7) (or ?v_35 ?v_8 ?v_10 ?v_11 ?v_2 (p9 ?v_85) ?v_8 ?v_7) (or ?v_36 ?v_2 ?v_7 ?v_7 ?v_8 (p9 ?v_93) ?v_8 ?v_11) (or ?v_37 ?v_8 ?v_11 ?v_11 ?v_8 (p9 ?v_99) ?v_8 ?v_11) (or (not (= ?v_40 ?v_38)) ?v_17) (or (not (= ?v_41 ?v_39)) ?v_19) (or (= ?v_20 c_0) (= ?v_20 c_1)) (or (= ?v_21 c_0) (= ?v_21 c_1)) (or (= ?v_22 c_0) (= ?v_22 c_1)) (or (= ?v_23 c_0) (= ?v_23 c_1)) (or (= ?v_24 c_0) (= ?v_24 c_1)) (or (= ?v_25 c_0) (= ?v_25 c_1)) (or (= ?v_26 c_0) (= ?v_26 c_1)) (or (= ?v_27 c_0) (= ?v_27 c_1)) (or (= ?v_42 c_0) (= ?v_42 c_1)) (or (= ?v_44 c_0) (= ?v_44 c_1)) (or (= ?v_50 c_0) (= ?v_50 c_1)) (or (= ?v_52 c_0) (= ?v_52 c_1)) (or (= ?v_46 c_0) (= ?v_46 c_1)) (or (= ?v_48 c_0) (= ?v_48 c_1)) (or (= ?v_54 c_0) (= ?v_54 c_1)) (or (= ?v_56 c_0) (= ?v_56 c_1)) (or (= ?v_98 c_0) (= ?v_98 c_1)) (or (= ?v_88 c_0) (= ?v_88 c_1)) (or (= ?v_82 c_0) (= ?v_82 c_1)) (or (= ?v_83 c_0) (= ?v_83 c_1)) (or (= ?v_84 c_0) (= ?v_84 c_1)) (or (= ?v_85 c_0) (= ?v_85 c_1)) (or (= ?v_93 c_0) (= ?v_93 c_1)) (or (= ?v_99 c_0) (= ?v_99 c_1)) (or (= ?v_12 c_0) (= ?v_12 c_1)) (or (= ?v_13 c_0) (= ?v_13 c_1)) (or (= ?v_14 c_0) (= ?v_14 c_1)) (or (= ?v_15 c_0) (= ?v_15 c_1)) (or (= ?v_16 c_0) (= ?v_16 c_1)) (or (= ?v_18 c_0) (= ?v_18 c_1)) (or (= ?v_28 c_0) (= ?v_28 c_1)) (or (= ?v_29 c_0) (= ?v_29 c_1)) (or (= ?v_38 c_0) (= ?v_38 c_1)) (or (= ?v_39 c_0) (= ?v_39 c_1)) (or (= ?v_40 c_0) (= ?v_40 c_1)) (or (= ?v_41 c_0) (= ?v_41 c_1)) (or (= ?v_58 c_0) (= ?v_58 c_1)) (or (= ?v_59 c_0) (= ?v_59 c_1)) (or (= c18 c_0) (= c18 c_1)) (or (= c8 c_0) (= c8 c_1))))))))))))))))))))
(check-sat)
(exit)
